\ LP format - for model browsing. Use MPS format to capture full model detail.
Minimize
  - 4 x1
Subject To
 constr(0): - x0 + x1 <= 1
 constr(1): - x0 + 3 x1 >= -8
 constr(2): - x0 - 5 x1 >= -6
 constr(3): 4 x0 + 4 x1 >= -0
Bounds
 x0 <= 1
 x1 <= 5
End
